NAME : MM15_depots
COMMENT : Instance 15 in MD algorithm. Coordinates of depots and vhcl speeds given.
TYPE : TSP
DIMENSION : 15
EDGE_WEIGHT_TYPE : ATT
NODE_COORD_SECTION
201 82.7138 46.0477 1
202 62.3415 2.4759 1
203 69.7335 36.2333 1
204 85.4939 74.6624 1
205 67.5608 20.6114 1
206 72.2931 92.8864 1
207 92.9658 37.0591 1
208 1.6773 90.2385 1
209 60.9782 1.0761 1
210 40.5933 66.9059 1
211 1.3957 22.3919 1
212 12.5167 40.1077 1
213 4.4000 16.5540 1
214 90.8243 26.1612 1
215 4.9054 22.6277 1
EOF
